c Reduced graph for mulsol.i.2 generated by Cyril Grelier
p edge 71 1264
e 1 2
e 1 4
e 1 6
e 1 8
e 1 10
e 1 12
e 1 13
e 1 15
e 1 16
e 1 17
e 1 18
e 1 19
e 1 20
e 1 21
e 1 22
e 1 23
e 1 24
e 1 25
e 1 26
e 1 27
e 1 28
e 1 30
e 1 32
e 1 33
e 1 34
e 1 35
e 1 36
e 1 37
e 1 38
e 1 39
e 1 40
e 1 41
e 1 43
e 1 44
e 1 45
e 1 46
e 1 47
e 1 48
e 1 56
e 1 57
e 1 58
e 1 59
e 1 60
e 1 61
e 1 62
e 1 63
e 1 64
e 1 65
e 1 66
e 1 67
e 1 68
e 1 69
e 1 70
e 1 71
e 2 4
e 2 6
e 2 8
e 2 10
e 2 12
e 2 13
e 2 15
e 2 16
e 2 17
e 2 18
e 2 19
e 2 20
e 2 21
e 2 22
e 2 23
e 2 24
e 2 25
e 2 26
e 2 27
e 2 28
e 2 30
e 2 32
e 2 33
e 2 34
e 2 35
e 2 36
e 2 37
e 2 38
e 2 39
e 2 40
e 2 41
e 2 43
e 2 44
e 2 45
e 2 46
e 2 47
e 2 48
e 2 56
e 2 57
e 2 58
e 2 59
e 2 60
e 2 61
e 2 62
e 2 63
e 2 64
e 2 65
e 2 66
e 2 67
e 2 68
e 2 69
e 2 70
e 2 71
e 3 4
e 3 5
e 3 6
e 3 7
e 3 8
e 3 9
e 3 10
e 3 11
e 3 12
e 3 14
e 3 15
e 3 29
e 3 30
e 3 31
e 3 32
e 3 33
e 3 34
e 3 35
e 3 36
e 3 37
e 3 38
e 3 39
e 3 40
e 3 41
e 3 42
e 3 43
e 3 44
e 3 45
e 3 46
e 3 47
e 3 48
e 3 49
e 3 50
e 3 51
e 3 52
e 3 53
e 3 54
e 3 55
e 3 56
e 3 57
e 3 58
e 3 59
e 3 60
e 3 61
e 3 62
e 3 63
e 3 64
e 3 65
e 3 66
e 3 67
e 3 68
e 3 69
e 3 70
e 3 71
e 4 5
e 4 6
e 4 7
e 4 8
e 4 9
e 4 10
e 4 11
e 4 12
e 4 13
e 4 14
e 4 15
e 4 16
e 4 17
e 4 18
e 4 19
e 4 20
e 4 21
e 4 22
e 4 23
e 4 24
e 4 25
e 4 26
e 4 27
e 4 28
e 4 43
e 4 44
e 4 45
e 4 46
e 4 47
e 4 48
e 4 56
e 4 61
e 4 64
e 4 65
e 4 66
e 4 68
e 4 69
e 4 70
e 4 71
e 5 6
e 5 7
e 5 8
e 5 9
e 5 10
e 5 11
e 5 12
e 5 14
e 5 29
e 5 30
e 5 31
e 5 32
e 5 33
e 5 34
e 5 35
e 5 36
e 5 37
e 5 38
e 5 39
e 5 40
e 5 41
e 5 42
e 5 49
e 5 50
e 5 51
e 5 52
e 5 53
e 5 54
e 5 55
e 5 56
e 5 57
e 5 58
e 5 59
e 5 60
e 5 61
e 5 62
e 5 63
e 5 67
e 5 71
e 6 7
e 6 8
e 6 9
e 6 10
e 6 11
e 6 12
e 6 13
e 6 15
e 6 16
e 6 17
e 6 18
e 6 19
e 6 20
e 6 21
e 6 22
e 6 23
e 6 24
e 6 25
e 6 26
e 6 27
e 6 28
e 6 43
e 6 44
e 6 45
e 6 46
e 6 47
e 6 48
e 6 56
e 6 61
e 6 64
e 6 65
e 6 66
e 6 68
e 6 69
e 6 70
e 6 71
e 7 8
e 7 9
e 7 10
e 7 11
e 7 14
e 7 29
e 7 30
e 7 31
e 7 32
e 7 33
e 7 34
e 7 35
e 7 36
e 7 37
e 7 38
e 7 39
e 7 40
e 7 41
e 7 42
e 7 49
e 7 50
e 7 51
e 7 52
e 7 53
e 7 54
e 7 55
e 7 56
e 7 57
e 7 58
e 7 59
e 7 60
e 7 61
e 7 62
e 7 63
e 7 67
e 7 71
e 8 9
e 8 10
e 8 12
e 8 13
e 8 15
e 8 16
e 8 17
e 8 18
e 8 19
e 8 20
e 8 21
e 8 22
e 8 23
e 8 24
e 8 25
e 8 26
e 8 27
e 8 28
e 8 43
e 8 44
e 8 45
e 8 46
e 8 47
e 8 48
e 8 56
e 8 61
e 8 64
e 8 65
e 8 66
e 8 68
e 8 69
e 8 70
e 8 71
e 9 11
e 9 14
e 9 29
e 9 30
e 9 31
e 9 32
e 9 33
e 9 34
e 9 35
e 9 36
e 9 37
e 9 38
e 9 39
e 9 40
e 9 41
e 9 42
e 9 49
e 9 50
e 9 51
e 9 52
e 9 53
e 9 54
e 9 55
e 9 56
e 9 57
e 9 58
e 9 59
e 9 60
e 9 61
e 9 62
e 9 63
e 9 67
e 9 71
e 10 12
e 10 13
e 10 15
e 10 16
e 10 17
e 10 18
e 10 19
e 10 20
e 10 21
e 10 22
e 10 23
e 10 24
e 10 25
e 10 26
e 10 27
e 10 28
e 10 43
e 10 44
e 10 45
e 10 46
e 10 47
e 10 48
e 10 56
e 10 61
e 10 64
e 10 65
e 10 66
e 10 68
e 10 69
e 10 70
e 10 71
e 11 14
e 11 29
e 11 30
e 11 31
e 11 32
e 11 33
e 11 34
e 11 35
e 11 36
e 11 37
e 11 38
e 11 39
e 11 40
e 11 41
e 11 42
e 11 49
e 11 50
e 11 51
e 11 52
e 11 53
e 11 54
e 11 55
e 11 56
e 11 57
e 11 58
e 11 59
e 11 60
e 11 61
e 11 62
e 11 63
e 11 67
e 11 71
e 12 13
e 12 15
e 12 16
e 12 17
e 12 18
e 12 19
e 12 20
e 12 21
e 12 22
e 12 23
e 12 24
e 12 25
e 12 26
e 12 27
e 12 28
e 12 43
e 12 44
e 12 45
e 12 46
e 12 47
e 12 48
e 12 56
e 12 61
e 12 64
e 12 65
e 12 66
e 12 68
e 12 69
e 12 70
e 12 71
e 13 15
e 13 16
e 13 17
e 13 18
e 13 19
e 13 20
e 13 21
e 13 22
e 13 23
e 13 24
e 13 25
e 13 26
e 13 27
e 13 28
e 13 30
e 13 43
e 13 44
e 13 45
e 13 46
e 13 47
e 13 48
e 13 56
e 13 61
e 13 64
e 13 65
e 13 66
e 13 68
e 13 69
e 13 70
e 13 71
e 14 29
e 14 30
e 14 31
e 14 32
e 14 33
e 14 34
e 14 35
e 14 36
e 14 37
e 14 38
e 14 39
e 14 40
e 14 41
e 14 42
e 14 49
e 14 50
e 14 51
e 14 52
e 14 53
e 14 54
e 14 55
e 14 56
e 14 57
e 14 58
e 14 59
e 14 60
e 14 61
e 14 62
e 14 63
e 14 67
e 14 71
e 15 16
e 15 17
e 15 18
e 15 19
e 15 20
e 15 21
e 15 22
e 15 23
e 15 24
e 15 25
e 15 26
e 15 27
e 15 28
e 15 43
e 15 44
e 15 45
e 15 46
e 15 47
e 15 48
e 15 56
e 15 61
e 15 64
e 15 65
e 15 66
e 15 68
e 15 69
e 15 70
e 15 71
e 16 17
e 16 18
e 16 19
e 16 20
e 16 21
e 16 22
e 16 23
e 16 24
e 16 25
e 16 26
e 16 27
e 16 28
e 16 43
e 16 44
e 16 45
e 16 46
e 16 47
e 16 48
e 16 56
e 16 61
e 16 64
e 16 65
e 16 66
e 16 68
e 16 69
e 16 70
e 16 71
e 17 18
e 17 19
e 17 20
e 17 21
e 17 22
e 17 23
e 17 24
e 17 25
e 17 26
e 17 27
e 17 28
e 17 43
e 17 44
e 17 45
e 17 46
e 17 47
e 17 48
e 17 56
e 17 61
e 17 64
e 17 65
e 17 66
e 17 68
e 17 69
e 17 70
e 17 71
e 18 19
e 18 20
e 18 21
e 18 22
e 18 23
e 18 24
e 18 25
e 18 26
e 18 27
e 18 28
e 18 43
e 18 44
e 18 45
e 18 46
e 18 47
e 18 48
e 18 56
e 18 61
e 18 64
e 18 65
e 18 66
e 18 68
e 18 69
e 18 70
e 18 71
e 19 20
e 19 21
e 19 22
e 19 23
e 19 24
e 19 25
e 19 26
e 19 27
e 19 28
e 19 43
e 19 44
e 19 45
e 19 46
e 19 47
e 19 48
e 19 56
e 19 61
e 19 64
e 19 65
e 19 66
e 19 68
e 19 69
e 19 70
e 19 71
e 20 21
e 20 22
e 20 23
e 20 24
e 20 25
e 20 26
e 20 27
e 20 28
e 20 43
e 20 44
e 20 45
e 20 46
e 20 47
e 20 48
e 20 56
e 20 61
e 20 64
e 20 65
e 20 66
e 20 68
e 20 69
e 20 70
e 20 71
e 21 22
e 21 23
e 21 24
e 21 25
e 21 26
e 21 27
e 21 28
e 21 43
e 21 44
e 21 45
e 21 46
e 21 47
e 21 48
e 21 56
e 21 61
e 21 64
e 21 65
e 21 66
e 21 68
e 21 69
e 21 70
e 21 71
e 22 23
e 22 24
e 22 25
e 22 26
e 22 27
e 22 28
e 22 43
e 22 44
e 22 45
e 22 46
e 22 47
e 22 48
e 22 56
e 22 61
e 22 64
e 22 65
e 22 66
e 22 68
e 22 69
e 22 70
e 22 71
e 23 24
e 23 25
e 23 26
e 23 27
e 23 28
e 23 43
e 23 44
e 23 45
e 23 46
e 23 47
e 23 48
e 23 56
e 23 61
e 23 64
e 23 65
e 23 66
e 23 68
e 23 69
e 23 70
e 23 71
e 24 25
e 24 26
e 24 27
e 24 28
e 24 43
e 24 44
e 24 45
e 24 46
e 24 47
e 24 48
e 24 56
e 24 61
e 24 64
e 24 65
e 24 66
e 24 68
e 24 69
e 24 70
e 24 71
e 25 26
e 25 27
e 25 28
e 25 43
e 25 44
e 25 45
e 25 46
e 25 47
e 25 48
e 25 56
e 25 61
e 25 64
e 25 65
e 25 66
e 25 68
e 25 69
e 25 70
e 25 71
e 26 27
e 26 28
e 26 43
e 26 44
e 26 45
e 26 46
e 26 47
e 26 48
e 26 56
e 26 61
e 26 64
e 26 65
e 26 66
e 26 68
e 26 69
e 26 70
e 26 71
e 27 28
e 27 43
e 27 44
e 27 45
e 27 46
e 27 47
e 27 48
e 27 56
e 27 61
e 27 64
e 27 65
e 27 66
e 27 68
e 27 69
e 27 70
e 27 71
e 28 43
e 28 44
e 28 45
e 28 46
e 28 47
e 28 48
e 28 56
e 28 61
e 28 64
e 28 65
e 28 66
e 28 68
e 28 69
e 28 70
e 28 71
e 29 30
e 29 31
e 29 32
e 29 33
e 29 34
e 29 35
e 29 36
e 29 37
e 29 38
e 29 39
e 29 40
e 29 41
e 29 42
e 29 49
e 29 50
e 29 51
e 29 52
e 29 53
e 29 54
e 29 55
e 29 56
e 29 57
e 29 58
e 29 59
e 29 60
e 29 61
e 29 62
e 29 63
e 29 67
e 29 71
e 30 31
e 30 32
e 30 33
e 30 34
e 30 35
e 30 36
e 30 37
e 30 38
e 30 39
e 30 40
e 30 41
e 30 42
e 30 49
e 30 50
e 30 51
e 30 52
e 30 53
e 30 54
e 30 55
e 30 57
e 30 58
e 30 59
e 30 60
e 30 62
e 30 63
e 30 67
e 31 32
e 31 33
e 31 34
e 31 35
e 31 36
e 31 37
e 31 38
e 31 39
e 31 40
e 31 41
e 31 42
e 31 49
e 31 50
e 31 51
e 31 52
e 31 53
e 31 54
e 31 55
e 31 56
e 31 57
e 31 58
e 31 59
e 31 60
e 31 61
e 31 62
e 31 63
e 31 67
e 32 33
e 32 34
e 32 35
e 32 36
e 32 37
e 32 38
e 32 39
e 32 40
e 32 41
e 32 42
e 32 49
e 32 50
e 32 51
e 32 52
e 32 53
e 32 54
e 32 55
e 32 57
e 32 58
e 32 59
e 32 60
e 32 62
e 32 63
e 32 67
e 33 34
e 33 35
e 33 36
e 33 37
e 33 38
e 33 39
e 33 40
e 33 41
e 33 42
e 33 49
e 33 50
e 33 51
e 33 52
e 33 53
e 33 54
e 33 55
e 33 57
e 33 58
e 33 59
e 33 60
e 33 62
e 33 63
e 33 67
e 34 35
e 34 36
e 34 37
e 34 38
e 34 39
e 34 40
e 34 41
e 34 42
e 34 49
e 34 50
e 34 51
e 34 52
e 34 53
e 34 54
e 34 55
e 34 57
e 34 58
e 34 59
e 34 60
e 34 62
e 34 63
e 34 67
e 35 36
e 35 37
e 35 38
e 35 39
e 35 40
e 35 41
e 35 42
e 35 49
e 35 50
e 35 51
e 35 52
e 35 53
e 35 54
e 35 55
e 35 57
e 35 58
e 35 59
e 35 60
e 35 62
e 35 63
e 35 67
e 36 37
e 36 38
e 36 39
e 36 40
e 36 41
e 36 42
e 36 49
e 36 50
e 36 51
e 36 52
e 36 53
e 36 54
e 36 55
e 36 57
e 36 58
e 36 59
e 36 60
e 36 62
e 36 63
e 36 67
e 37 38
e 37 39
e 37 40
e 37 41
e 37 42
e 37 49
e 37 50
e 37 51
e 37 52
e 37 53
e 37 54
e 37 55
e 37 57
e 37 58
e 37 59
e 37 60
e 37 62
e 37 63
e 37 67
e 38 39
e 38 40
e 38 41
e 38 42
e 38 49
e 38 50
e 38 51
e 38 52
e 38 53
e 38 54
e 38 55
e 38 57
e 38 58
e 38 59
e 38 60
e 38 62
e 38 63
e 38 67
e 39 40
e 39 41
e 39 42
e 39 49
e 39 50
e 39 51
e 39 52
e 39 53
e 39 54
e 39 55
e 39 57
e 39 58
e 39 59
e 39 60
e 39 62
e 39 63
e 39 67
e 40 41
e 40 42
e 40 49
e 40 50
e 40 51
e 40 52
e 40 53
e 40 54
e 40 55
e 40 57
e 40 58
e 40 59
e 40 60
e 40 62
e 40 63
e 40 67
e 41 42
e 41 49
e 41 50
e 41 51
e 41 52
e 41 53
e 41 54
e 41 55
e 41 57
e 41 58
e 41 59
e 41 60
e 41 62
e 41 63
e 41 67
e 42 49
e 42 50
e 42 51
e 42 52
e 42 53
e 42 54
e 42 55
e 42 56
e 42 57
e 42 58
e 42 59
e 42 60
e 42 62
e 42 63
e 42 67
e 43 44
e 43 45
e 43 46
e 43 47
e 43 48
e 43 64
e 43 65
e 43 66
e 43 68
e 43 69
e 43 70
e 44 45
e 44 46
e 44 47
e 44 48
e 44 64
e 44 65
e 44 66
e 44 68
e 44 69
e 44 70
e 45 46
e 45 47
e 45 48
e 45 64
e 45 65
e 45 66
e 45 68
e 45 69
e 45 70
e 46 47
e 46 48
e 46 64
e 46 65
e 46 66
e 46 68
e 46 69
e 46 70
e 47 48
e 47 64
e 47 65
e 47 66
e 47 68
e 47 69
e 47 70
e 48 64
e 48 65
e 48 66
e 48 68
e 48 69
e 48 70
e 49 50
e 49 51
e 49 52
e 49 53
e 49 54
e 49 55
e 49 57
e 49 58
e 49 59
e 49 60
e 49 62
e 49 63
e 49 67
e 50 51
e 50 52
e 50 53
e 50 54
e 50 55
e 50 57
e 50 58
e 50 59
e 50 60
e 50 62
e 50 63
e 50 67
e 51 52
e 51 53
e 51 54
e 51 55
e 51 57
e 51 58
e 51 59
e 51 60
e 51 62
e 51 63
e 51 67
e 52 53
e 52 54
e 52 55
e 52 57
e 52 58
e 52 59
e 52 60
e 52 62
e 52 63
e 52 67
e 53 54
e 53 55
e 53 57
e 53 58
e 53 59
e 53 60
e 53 62
e 53 63
e 53 67
e 54 55
e 54 57
e 54 58
e 54 59
e 54 60
e 54 62
e 54 63
e 54 67
e 55 57
e 55 58
e 55 59
e 55 60
e 55 62
e 55 63
e 55 67
e 56 61
e 56 71
e 57 58
e 57 59
e 57 60
e 58 59
e 58 60
e 59 60
e 61 71
e 62 63
e 62 67
e 63 67
e 64 65
e 64 66
e 65 66
e 68 69
e 68 70
e 69 70
